(set-info :smt-lib-version 2.6)
(set-logic QF_NIA)
(set-info :source |
Generated by: Cristina Borralleras, Daniel Larraz, Albert Oliveras, Enric Rodriguez-Carbonell, Albert Rubio
Generated on: 2017-04-27
Generator: VeryMax
Application: Termination proving
Target solver: barcelogic
|)
(set-info :license "https://creativecommons.org/licenses/by/4.0/")
(set-info :category "industrial")
(set-info :status sat)
(declare-fun Nl2main_x1 () Int)
(declare-fun Nl2main_y1 () Int)
(declare-fun Nl2main_tmp1 () Int)
(declare-fun Nl2main_xtmp1 () Int)
(declare-fun Nl2main_x2 () Int)
(declare-fun Nl2main_y2 () Int)
(declare-fun Nl2main_tmp2 () Int)
(declare-fun Nl2main_xtmp2 () Int)
(declare-fun lam0n0 () Int)
(declare-fun lam0n1 () Int)
(declare-fun lam0n2 () Int)
(declare-fun lam0n3 () Int)
(declare-fun lam0n4 () Int)
(declare-fun Nl2CT1 () Int)
(declare-fun Nl2CT2 () Int)
(declare-fun lam1n0 () Int)
(declare-fun lam1n1 () Int)
(declare-fun lam1n2 () Int)
(declare-fun lam1n3 () Int)
(declare-fun lam1n4 () Int)
(declare-fun lam2n0 () Int)
(declare-fun lam2n1 () Int)
(declare-fun lam2n2 () Int)
(declare-fun lam2n3 () Int)
(declare-fun lam2n4 () Int)
(declare-fun lam3n0 () Int)
(declare-fun lam3n1 () Int)
(declare-fun lam3n2 () Int)
(declare-fun lam3n3 () Int)
(declare-fun lam3n4 () Int)
(declare-fun lam3n5 () Int)
(declare-fun lam3n6 () Int)
(declare-fun lam4n0 () Int)
(declare-fun lam4n1 () Int)
(declare-fun lam4n2 () Int)
(declare-fun lam4n3 () Int)
(declare-fun lam4n4 () Int)
(declare-fun lam4n5 () Int)
(declare-fun lam4n6 () Int)
(declare-fun lam5n0 () Int)
(declare-fun lam5n1 () Int)
(declare-fun lam5n2 () Int)
(declare-fun lam5n3 () Int)
(declare-fun lam5n4 () Int)
(declare-fun lam5n5 () Int)
(declare-fun lam5n6 () Int)
(declare-fun lam6n0 () Int)
(declare-fun lam6n1 () Int)
(declare-fun lam6n2 () Int)
(declare-fun lam6n3 () Int)
(declare-fun lam6n4 () Int)
(declare-fun lam6n5 () Int)
(declare-fun lam7n0 () Int)
(declare-fun lam7n1 () Int)
(declare-fun lam7n2 () Int)
(declare-fun lam7n3 () Int)
(declare-fun lam7n4 () Int)
(declare-fun lam7n5 () Int)
(declare-fun lam8n0 () Int)
(declare-fun lam8n1 () Int)
(declare-fun lam8n2 () Int)
(declare-fun lam8n3 () Int)
(declare-fun lam8n4 () Int)
(declare-fun lam8n5 () Int)
(declare-fun lam9n0 () Int)
(declare-fun lam9n1 () Int)
(declare-fun lam9n2 () Int)
(declare-fun lam9n4 () Int)
(declare-fun lam9n5 () Int)
(declare-fun lam9n3 () Int)
(declare-fun lam10n0 () Int)
(declare-fun lam10n1 () Int)
(declare-fun lam10n2 () Int)
(declare-fun lam10n4 () Int)
(declare-fun lam10n5 () Int)
(declare-fun lam10n3 () Int)
(declare-fun lam11n0 () Int)
(declare-fun lam11n1 () Int)
(declare-fun lam11n2 () Int)
(declare-fun lam11n4 () Int)
(declare-fun lam11n5 () Int)
(declare-fun lam11n3 () Int)
(declare-fun lam12n0 () Int)
(declare-fun lam12n1 () Int)
(declare-fun lam12n2 () Int)
(declare-fun lam12n3 () Int)
(declare-fun lam12n4 () Int)
(declare-fun lam13n0 () Int)
(declare-fun lam13n1 () Int)
(declare-fun lam13n2 () Int)
(declare-fun lam13n3 () Int)
(declare-fun lam13n4 () Int)
(declare-fun lam14n0 () Int)
(declare-fun lam14n1 () Int)
(declare-fun lam14n2 () Int)
(declare-fun lam14n3 () Int)
(declare-fun lam14n4 () Int)
(declare-fun lam14n5 () Int)
(declare-fun lam15n0 () Int)
(declare-fun lam15n1 () Int)
(declare-fun lam15n2 () Int)
(declare-fun lam15n3 () Int)
(declare-fun lam15n4 () Int)
(declare-fun lam15n5 () Int)
(declare-fun lam16n0 () Int)
(declare-fun lam16n1 () Int)
(declare-fun lam16n2 () Int)
(declare-fun lam16n3 () Int)
(declare-fun lam16n4 () Int)
(declare-fun lam17n0 () Int)
(declare-fun lam17n1 () Int)
(declare-fun lam17n2 () Int)
(declare-fun lam17n3 () Int)
(declare-fun lam17n4 () Int)
(declare-fun lam18n0 () Int)
(declare-fun lam18n1 () Int)
(declare-fun lam18n2 () Int)
(declare-fun lam18n3 () Int)
(declare-fun lam19n0 () Int)
(declare-fun lam19n1 () Int)
(declare-fun lam19n2 () Int)
(declare-fun lam19n3 () Int)
(declare-fun lam20n0 () Int)
(declare-fun lam20n1 () Int)
(declare-fun lam20n2 () Int)
(declare-fun lam21n0 () Int)
(declare-fun lam21n1 () Int)
(declare-fun lam21n2 () Int)
(declare-fun main_y () Int)
(declare-fun main_x () Int)
(declare-fun undef3 () Int)
(declare-fun undef4 () Int)
(declare-fun main_tmp () Int)
(declare-fun main_xtmp () Int)
(declare-fun lam25n0 () Int)
(declare-fun lam25n1 () Int)
(declare-fun lam25n2 () Int)
(declare-fun lam25n3 () Int)
(declare-fun lam25n4 () Int)
(declare-fun RFN1_CT () Int)
(declare-fun RFN1_main_x () Int)
(declare-fun RFN1_main_y () Int)
(declare-fun RFN1_main_tmp () Int)
(declare-fun RFN1_main_xtmp () Int)
(declare-fun lam29n0 () Int)
(declare-fun lam29n1 () Int)
(declare-fun lam29n2 () Int)
(declare-fun lam29n3 () Int)
(declare-fun lam29n4 () Int)
(declare-fun lam29n5 () Int)
(declare-fun lam29n6 () Int)
(declare-fun lam33n0 () Int)
(declare-fun lam33n1 () Int)
(declare-fun lam33n2 () Int)
(declare-fun lam33n3 () Int)
(declare-fun lam33n4 () Int)
(declare-fun lam33n5 () Int)
(declare-fun lam37n0 () Int)
(declare-fun lam37n1 () Int)
(declare-fun lam37n2 () Int)
(declare-fun lam37n4 () Int)
(declare-fun lam37n5 () Int)
(declare-fun lam37n3 () Int)
(declare-fun lam23n0 () Int)
(declare-fun lam23n1 () Int)
(declare-fun lam23n2 () Int)
(declare-fun lam23n3 () Int)
(declare-fun lam23n4 () Int)
(declare-fun lam24n0 () Int)
(declare-fun lam24n1 () Int)
(declare-fun lam24n2 () Int)
(declare-fun lam24n3 () Int)
(declare-fun lam24n4 () Int)
(declare-fun lam27n0 () Int)
(declare-fun lam27n1 () Int)
(declare-fun lam27n2 () Int)
(declare-fun lam27n3 () Int)
(declare-fun lam27n4 () Int)
(declare-fun lam27n5 () Int)
(declare-fun lam27n6 () Int)
(declare-fun lam28n0 () Int)
(declare-fun lam28n1 () Int)
(declare-fun lam28n2 () Int)
(declare-fun lam28n3 () Int)
(declare-fun lam28n4 () Int)
(declare-fun lam28n5 () Int)
(declare-fun lam28n6 () Int)
(declare-fun lam31n0 () Int)
(declare-fun lam31n1 () Int)
(declare-fun lam31n2 () Int)
(declare-fun lam31n3 () Int)
(declare-fun lam31n4 () Int)
(declare-fun lam31n5 () Int)
(declare-fun lam32n0 () Int)
(declare-fun lam32n1 () Int)
(declare-fun lam32n2 () Int)
(declare-fun lam32n3 () Int)
(declare-fun lam32n4 () Int)
(declare-fun lam32n5 () Int)
(declare-fun lam35n0 () Int)
(declare-fun lam35n1 () Int)
(declare-fun lam35n2 () Int)
(declare-fun lam35n4 () Int)
(declare-fun lam35n5 () Int)
(declare-fun lam35n3 () Int)
(declare-fun lam36n0 () Int)
(declare-fun lam36n1 () Int)
(declare-fun lam36n2 () Int)
(declare-fun lam36n4 () Int)
(declare-fun lam36n5 () Int)
(declare-fun lam36n3 () Int)
(declare-fun lam22n0 () Int)
(declare-fun lam22n1 () Int)
(declare-fun lam22n2 () Int)
(declare-fun lam22n3 () Int)
(declare-fun lam22n4 () Int)
(declare-fun lam26n0 () Int)
(declare-fun lam26n1 () Int)
(declare-fun lam26n2 () Int)
(declare-fun lam26n3 () Int)
(declare-fun lam26n4 () Int)
(declare-fun lam26n5 () Int)
(declare-fun lam26n6 () Int)
(declare-fun lam30n0 () Int)
(declare-fun lam30n1 () Int)
(declare-fun lam30n2 () Int)
(declare-fun lam30n3 () Int)
(declare-fun lam30n4 () Int)
(declare-fun lam30n5 () Int)
(declare-fun lam34n0 () Int)
(declare-fun lam34n1 () Int)
(declare-fun lam34n2 () Int)
(declare-fun lam34n4 () Int)
(declare-fun lam34n5 () Int)
(declare-fun lam34n3 () Int)
(assert ( and ( <= ( - 1 ) Nl2main_x1 ) ( <= Nl2main_x1 1 ) ( <= ( - 1 ) Nl2main_y1 ) ( <= Nl2main_y1 1 ) ( <= ( - 1 ) Nl2main_tmp1 ) ( <= Nl2main_tmp1 1 ) ( <= ( - 1 ) Nl2main_xtmp1 ) ( <= Nl2main_xtmp1 1 ) ( <= ( - 1 ) Nl2main_x2 ) ( <= Nl2main_x2 1 ) ( <= ( - 1 ) Nl2main_y2 ) ( <= Nl2main_y2 1 ) ( <= ( - 1 ) Nl2main_tmp2 ) ( <= Nl2main_tmp2 1 ) ( <= ( - 1 ) Nl2main_xtmp2 ) ( <= Nl2main_xtmp2 1 ) ))
(assert ( or ( and ( >= lam0n0 0 ) ( >= lam0n1 0 ) ( >= lam0n2 0 ) ( >= lam0n3 0 ) ( >= lam0n4 0 ) ( > ( + ( * 1 lam0n1 ) ( * 1 lam0n2 ) ( * Nl2CT1 lam0n3 ) ( * Nl2CT2 lam0n4 ) ( - 1 ) ) 0 ) ( = ( + ( * ( - 1 ) lam0n0 ) ( * ( - 1 ) lam0n1 ) ( * Nl2main_x1 lam0n3 ) ( * Nl2main_x2 lam0n4 ) ) 0 ) ( = ( + ( * ( - 1 ) lam0n0 ) ( * 1 lam0n2 ) ( * Nl2main_y1 lam0n3 ) ( * Nl2main_y2 lam0n4 ) ) 0 ) ( = ( + ( * Nl2main_tmp1 lam0n3 ) ( * Nl2main_tmp2 lam0n4 ) ) 0 ) ( = ( + ( * Nl2main_xtmp1 lam0n3 ) ( * Nl2main_xtmp2 lam0n4 ) ) 0 ) ) ( and ( >= lam1n0 0 ) ( >= lam1n1 0 ) ( >= lam1n2 0 ) ( >= lam1n3 0 ) ( >= lam1n4 0 ) ( > ( + ( * 1 lam1n1 ) ( * 1 lam1n2 ) ( * Nl2CT1 lam1n3 ) ( * Nl2CT2 lam1n4 ) ( - 1 ( + ( + ( + ( + Nl2CT1 ( * Nl2main_x1 0 ) ) ( * Nl2main_y1 0 ) ) ( * Nl2main_tmp1 0 ) ) ( * Nl2main_xtmp1 0 ) ) ) ) 0 ) ( = ( + ( * ( - 1 ) lam1n0 ) ( * ( - 1 ) lam1n1 ) ( * Nl2main_x1 lam1n3 ) ( * Nl2main_x2 lam1n4 ) ( - ( + ( + 0 ( * Nl2main_y1 1 ) ) ( * Nl2main_xtmp1 1 ) ) ) ) 0 ) ( = ( + ( * ( - 1 ) lam1n0 ) ( * 1 lam1n2 ) ( * Nl2main_y1 lam1n3 ) ( * Nl2main_y2 lam1n4 ) ( - ( + ( + 0 ( * Nl2main_x1 1 ) ) ( * Nl2main_tmp1 1 ) ) ) ) 0 ) ( = ( + ( * Nl2main_tmp1 lam1n3 ) ( * Nl2main_tmp2 lam1n4 ) ) 0 ) ( = ( + ( * Nl2main_xtmp1 lam1n3 ) ( * Nl2main_xtmp2 lam1n4 ) ) 0 ) ) ))
(assert ( or ( and ( >= lam0n0 0 ) ( >= lam0n1 0 ) ( >= lam0n2 0 ) ( >= lam0n3 0 ) ( >= lam0n4 0 ) ( > ( + ( * 1 lam0n1 ) ( * 1 lam0n2 ) ( * Nl2CT1 lam0n3 ) ( * Nl2CT2 lam0n4 ) ( - 1 ) ) 0 ) ( = ( + ( * ( - 1 ) lam0n0 ) ( * ( - 1 ) lam0n1 ) ( * Nl2main_x1 lam0n3 ) ( * Nl2main_x2 lam0n4 ) ) 0 ) ( = ( + ( * ( - 1 ) lam0n0 ) ( * 1 lam0n2 ) ( * Nl2main_y1 lam0n3 ) ( * Nl2main_y2 lam0n4 ) ) 0 ) ( = ( + ( * Nl2main_tmp1 lam0n3 ) ( * Nl2main_tmp2 lam0n4 ) ) 0 ) ( = ( + ( * Nl2main_xtmp1 lam0n3 ) ( * Nl2main_xtmp2 lam0n4 ) ) 0 ) ) ( and ( >= lam2n0 0 ) ( >= lam2n1 0 ) ( >= lam2n2 0 ) ( >= lam2n3 0 ) ( >= lam2n4 0 ) ( > ( + ( * 1 lam2n1 ) ( * 1 lam2n2 ) ( * Nl2CT1 lam2n3 ) ( * Nl2CT2 lam2n4 ) ( - 1 ( + ( + ( + ( + Nl2CT2 ( * Nl2main_x2 0 ) ) ( * Nl2main_y2 0 ) ) ( * Nl2main_tmp2 0 ) ) ( * Nl2main_xtmp2 0 ) ) ) ) 0 ) ( = ( + ( * ( - 1 ) lam2n0 ) ( * ( - 1 ) lam2n1 ) ( * Nl2main_x1 lam2n3 ) ( * Nl2main_x2 lam2n4 ) ( - ( + ( + 0 ( * Nl2main_y2 1 ) ) ( * Nl2main_xtmp2 1 ) ) ) ) 0 ) ( = ( + ( * ( - 1 ) lam2n0 ) ( * 1 lam2n2 ) ( * Nl2main_y1 lam2n3 ) ( * Nl2main_y2 lam2n4 ) ( - ( + ( + 0 ( * Nl2main_x2 1 ) ) ( * Nl2main_tmp2 1 ) ) ) ) 0 ) ( = ( + ( * Nl2main_tmp1 lam2n3 ) ( * Nl2main_tmp2 lam2n4 ) ) 0 ) ( = ( + ( * Nl2main_xtmp1 lam2n3 ) ( * Nl2main_xtmp2 lam2n4 ) ) 0 ) ) ))
(assert ( or ( and ( >= lam3n0 0 ) ( >= lam3n1 0 ) ( >= lam3n2 0 ) ( >= lam3n3 0 ) ( >= lam3n4 0 ) ( >= lam3n5 0 ) ( >= lam3n6 0 ) ( > ( + ( * 1 lam3n2 ) ( * ( - 1 ) lam3n3 ) ( * 2 lam3n4 ) ( * Nl2CT1 lam3n5 ) ( * Nl2CT2 lam3n6 ) ( - 1 ) ) 0 ) ( = ( + ( * 1 lam3n0 ) ( * ( - 1 ) lam3n1 ) ( * 1 lam3n3 ) ( * 1 lam3n4 ) ( * Nl2main_x1 lam3n5 ) ( * Nl2main_x2 lam3n6 ) ) 0 ) ( = ( + ( * ( - 1 ) lam3n1 ) ( * ( - 1 ) lam3n2 ) ( * 1 lam3n3 ) ( * ( - 1 ) lam3n4 ) ( * Nl2main_y1 lam3n5 ) ( * Nl2main_y2 lam3n6 ) ) 0 ) ( = ( + ( * Nl2main_tmp1 lam3n5 ) ( * Nl2main_tmp2 lam3n6 ) ) 0 ) ( = ( + ( * Nl2main_xtmp1 lam3n5 ) ( * Nl2main_xtmp2 lam3n6 ) ) 0 ) ) ( and ( >= lam4n0 0 ) ( >= lam4n1 0 ) ( >= lam4n2 0 ) ( >= lam4n3 0 ) ( >= lam4n4 0 ) ( >= lam4n5 0 ) ( >= lam4n6 0 ) ( > ( + ( * 1 lam4n2 ) ( * ( - 1 ) lam4n3 ) ( * 2 lam4n4 ) ( * Nl2CT1 lam4n5 ) ( * Nl2CT2 lam4n6 ) ( - 1 ( + ( + ( + ( + Nl2CT1 ( * Nl2main_x1 0 ) ) ( * Nl2main_y1 0 ) ) ( * Nl2main_tmp1 0 ) ) ( * Nl2main_xtmp1 0 ) ) ) ) 0 ) ( = ( + ( * 1 lam4n0 ) ( * ( - 1 ) lam4n1 ) ( * 1 lam4n3 ) ( * 1 lam4n4 ) ( * Nl2main_x1 lam4n5 ) ( * Nl2main_x2 lam4n6 ) ( - ( + ( + 0 ( * Nl2main_y1 1 ) ) ( * Nl2main_xtmp1 1 ) ) ) ) 0 ) ( = ( + ( * ( - 1 ) lam4n1 ) ( * ( - 1 ) lam4n2 ) ( * 1 lam4n3 ) ( * ( - 1 ) lam4n4 ) ( * Nl2main_y1 lam4n5 ) ( * Nl2main_y2 lam4n6 ) ( - ( + ( + 0 ( * Nl2main_x1 1 ) ) ( * Nl2main_tmp1 1 ) ) ) ) 0 ) ( = ( + ( * Nl2main_tmp1 lam4n5 ) ( * Nl2main_tmp2 lam4n6 ) ) 0 ) ( = ( + ( * Nl2main_xtmp1 lam4n5 ) ( * Nl2main_xtmp2 lam4n6 ) ) 0 ) ) ))
(assert ( or ( and ( >= lam3n0 0 ) ( >= lam3n1 0 ) ( >= lam3n2 0 ) ( >= lam3n3 0 ) ( >= lam3n4 0 ) ( >= lam3n5 0 ) ( >= lam3n6 0 ) ( > ( + ( * 1 lam3n2 ) ( * ( - 1 ) lam3n3 ) ( * 2 lam3n4 ) ( * Nl2CT1 lam3n5 ) ( * Nl2CT2 lam3n6 ) ( - 1 ) ) 0 ) ( = ( + ( * 1 lam3n0 ) ( * ( - 1 ) lam3n1 ) ( * 1 lam3n3 ) ( * 1 lam3n4 ) ( * Nl2main_x1 lam3n5 ) ( * Nl2main_x2 lam3n6 ) ) 0 ) ( = ( + ( * ( - 1 ) lam3n1 ) ( * ( - 1 ) lam3n2 ) ( * 1 lam3n3 ) ( * ( - 1 ) lam3n4 ) ( * Nl2main_y1 lam3n5 ) ( * Nl2main_y2 lam3n6 ) ) 0 ) ( = ( + ( * Nl2main_tmp1 lam3n5 ) ( * Nl2main_tmp2 lam3n6 ) ) 0 ) ( = ( + ( * Nl2main_xtmp1 lam3n5 ) ( * Nl2main_xtmp2 lam3n6 ) ) 0 ) ) ( and ( >= lam5n0 0 ) ( >= lam5n1 0 ) ( >= lam5n2 0 ) ( >= lam5n3 0 ) ( >= lam5n4 0 ) ( >= lam5n5 0 ) ( >= lam5n6 0 ) ( > ( + ( * 1 lam5n2 ) ( * ( - 1 ) lam5n3 ) ( * 2 lam5n4 ) ( * Nl2CT1 lam5n5 ) ( * Nl2CT2 lam5n6 ) ( - 1 ( + ( + ( + ( + Nl2CT2 ( * Nl2main_x2 0 ) ) ( * Nl2main_y2 0 ) ) ( * Nl2main_tmp2 0 ) ) ( * Nl2main_xtmp2 0 ) ) ) ) 0 ) ( = ( + ( * 1 lam5n0 ) ( * ( - 1 ) lam5n1 ) ( * 1 lam5n3 ) ( * 1 lam5n4 ) ( * Nl2main_x1 lam5n5 ) ( * Nl2main_x2 lam5n6 ) ( - ( + ( + 0 ( * Nl2main_y2 1 ) ) ( * Nl2main_xtmp2 1 ) ) ) ) 0 ) ( = ( + ( * ( - 1 ) lam5n1 ) ( * ( - 1 ) lam5n2 ) ( * 1 lam5n3 ) ( * ( - 1 ) lam5n4 ) ( * Nl2main_y1 lam5n5 ) ( * Nl2main_y2 lam5n6 ) ( - ( + ( + 0 ( * Nl2main_x2 1 ) ) ( * Nl2main_tmp2 1 ) ) ) ) 0 ) ( = ( + ( * Nl2main_tmp1 lam5n5 ) ( * Nl2main_tmp2 lam5n6 ) ) 0 ) ( = ( + ( * Nl2main_xtmp1 lam5n5 ) ( * Nl2main_xtmp2 lam5n6 ) ) 0 ) ) ))
(assert ( or ( and ( >= lam6n0 0 ) ( >= lam6n1 0 ) ( >= lam6n2 0 ) ( >= lam6n3 0 ) ( >= lam6n4 0 ) ( >= lam6n5 0 ) ( > ( + ( * 1 lam6n2 ) ( * 2 lam6n3 ) ( * Nl2CT1 lam6n4 ) ( * Nl2CT2 lam6n5 ) ( - 1 ) ) 0 ) ( = ( + ( * 1 lam6n0 ) ( * 1 lam6n1 ) ( * ( - 1 ) lam6n3 ) ( * Nl2main_x1 lam6n4 ) ( * Nl2main_x2 lam6n5 ) ) 0 ) ( = ( + ( * ( - 1 ) lam6n1 ) ( * ( - 1 ) lam6n2 ) ( * ( - 1 ) lam6n3 ) ( * Nl2main_y1 lam6n4 ) ( * Nl2main_y2 lam6n5 ) ) 0 ) ( = ( + ( * Nl2main_tmp1 lam6n4 ) ( * Nl2main_tmp2 lam6n5 ) ) 0 ) ( = ( + ( * Nl2main_xtmp1 lam6n4 ) ( * Nl2main_xtmp2 lam6n5 ) ) 0 ) ) ( and ( >= lam7n0 0 ) ( >= lam7n1 0 ) ( >= lam7n2 0 ) ( >= lam7n3 0 ) ( >= lam7n4 0 ) ( >= lam7n5 0 ) ( > ( + ( * 1 lam7n2 ) ( * 2 lam7n3 ) ( * Nl2CT1 lam7n4 ) ( * Nl2CT2 lam7n5 ) ( - 1 ( + ( + ( + ( + Nl2CT1 ( * Nl2main_x1 0 ) ) ( * Nl2main_y1 0 ) ) ( * Nl2main_tmp1 0 ) ) ( * Nl2main_xtmp1 0 ) ) ) ) 0 ) ( = ( + ( * 1 lam7n0 ) ( * 1 lam7n1 ) ( * ( - 1 ) lam7n3 ) ( * Nl2main_x1 lam7n4 ) ( * Nl2main_x2 lam7n5 ) ( - ( + ( + 0 ( * Nl2main_y1 1 ) ) ( * Nl2main_xtmp1 1 ) ) ) ) 0 ) ( = ( + ( * ( - 1 ) lam7n1 ) ( * ( - 1 ) lam7n2 ) ( * ( - 1 ) lam7n3 ) ( * Nl2main_y1 lam7n4 ) ( * Nl2main_y2 lam7n5 ) ( - ( + ( + 0 ( * Nl2main_x1 1 ) ) ( * Nl2main_tmp1 1 ) ) ) ) 0 ) ( = ( + ( * Nl2main_tmp1 lam7n4 ) ( * Nl2main_tmp2 lam7n5 ) ) 0 ) ( = ( + ( * Nl2main_xtmp1 lam7n4 ) ( * Nl2main_xtmp2 lam7n5 ) ) 0 ) ) ))
(assert ( or ( and ( >= lam6n0 0 ) ( >= lam6n1 0 ) ( >= lam6n2 0 ) ( >= lam6n3 0 ) ( >= lam6n4 0 ) ( >= lam6n5 0 ) ( > ( + ( * 1 lam6n2 ) ( * 2 lam6n3 ) ( * Nl2CT1 lam6n4 ) ( * Nl2CT2 lam6n5 ) ( - 1 ) ) 0 ) ( = ( + ( * 1 lam6n0 ) ( * 1 lam6n1 ) ( * ( - 1 ) lam6n3 ) ( * Nl2main_x1 lam6n4 ) ( * Nl2main_x2 lam6n5 ) ) 0 ) ( = ( + ( * ( - 1 ) lam6n1 ) ( * ( - 1 ) lam6n2 ) ( * ( - 1 ) lam6n3 ) ( * Nl2main_y1 lam6n4 ) ( * Nl2main_y2 lam6n5 ) ) 0 ) ( = ( + ( * Nl2main_tmp1 lam6n4 ) ( * Nl2main_tmp2 lam6n5 ) ) 0 ) ( = ( + ( * Nl2main_xtmp1 lam6n4 ) ( * Nl2main_xtmp2 lam6n5 ) ) 0 ) ) ( and ( >= lam8n0 0 ) ( >= lam8n1 0 ) ( >= lam8n2 0 ) ( >= lam8n3 0 ) ( >= lam8n4 0 ) ( >= lam8n5 0 ) ( > ( + ( * 1 lam8n2 ) ( * 2 lam8n3 ) ( * Nl2CT1 lam8n4 ) ( * Nl2CT2 lam8n5 ) ( - 1 ( + ( + ( + ( + Nl2CT2 ( * Nl2main_x2 0 ) ) ( * Nl2main_y2 0 ) ) ( * Nl2main_tmp2 0 ) ) ( * Nl2main_xtmp2 0 ) ) ) ) 0 ) ( = ( + ( * 1 lam8n0 ) ( * 1 lam8n1 ) ( * ( - 1 ) lam8n3 ) ( * Nl2main_x1 lam8n4 ) ( * Nl2main_x2 lam8n5 ) ( - ( + ( + 0 ( * Nl2main_y2 1 ) ) ( * Nl2main_xtmp2 1 ) ) ) ) 0 ) ( = ( + ( * ( - 1 ) lam8n1 ) ( * ( - 1 ) lam8n2 ) ( * ( - 1 ) lam8n3 ) ( * Nl2main_y1 lam8n4 ) ( * Nl2main_y2 lam8n5 ) ( - ( + ( + 0 ( * Nl2main_x2 1 ) ) ( * Nl2main_tmp2 1 ) ) ) ) 0 ) ( = ( + ( * Nl2main_tmp1 lam8n4 ) ( * Nl2main_tmp2 lam8n5 ) ) 0 ) ( = ( + ( * Nl2main_xtmp1 lam8n4 ) ( * Nl2main_xtmp2 lam8n5 ) ) 0 ) ) ))
(assert ( or ( and ( >= lam9n0 0 ) ( >= lam9n1 0 ) ( >= lam9n2 0 ) ( >= lam9n4 0 ) ( >= lam9n5 0 ) ( > ( + ( * 1 lam9n0 ) ( * 1 lam9n1 ) ( * 2 lam9n2 ) ( * Nl2CT1 lam9n4 ) ( * Nl2CT2 lam9n5 ) ( - 1 ) ) 0 ) ( = ( + ( * ( - 1 ) lam9n0 ) ( * ( - 1 ) lam9n2 ) ( * 1 lam9n3 ) ( * Nl2main_x1 lam9n4 ) ( * Nl2main_x2 lam9n5 ) ) 0 ) ( = ( + ( * ( - 1 ) lam9n1 ) ( * ( - 1 ) lam9n2 ) ( * ( - 1 ) lam9n3 ) ( * Nl2main_y1 lam9n4 ) ( * Nl2main_y2 lam9n5 ) ) 0 ) ( = ( + ( * Nl2main_tmp1 lam9n4 ) ( * Nl2main_tmp2 lam9n5 ) ) 0 ) ( = ( + ( * Nl2main_xtmp1 lam9n4 ) ( * Nl2main_xtmp2 lam9n5 ) ) 0 ) ) ( and ( >= lam10n0 0 ) ( >= lam10n1 0 ) ( >= lam10n2 0 ) ( >= lam10n4 0 ) ( >= lam10n5 0 ) ( > ( + ( * 1 lam10n0 ) ( * 1 lam10n1 ) ( * 2 lam10n2 ) ( * Nl2CT1 lam10n4 ) ( * Nl2CT2 lam10n5 ) ( - 1 ( + ( + ( + ( + Nl2CT1 ( * Nl2main_x1 0 ) ) ( * Nl2main_y1 0 ) ) ( * Nl2main_tmp1 0 ) ) ( * Nl2main_xtmp1 0 ) ) ) ) 0 ) ( = ( + ( * ( - 1 ) lam10n0 ) ( * ( - 1 ) lam10n2 ) ( * 1 lam10n3 ) ( * Nl2main_x1 lam10n4 ) ( * Nl2main_x2 lam10n5 ) ( - ( + ( + 0 ( * Nl2main_y1 1 ) ) ( * Nl2main_xtmp1 1 ) ) ) ) 0 ) ( = ( + ( * ( - 1 ) lam10n1 ) ( * ( - 1 ) lam10n2 ) ( * ( - 1 ) lam10n3 ) ( * Nl2main_y1 lam10n4 ) ( * Nl2main_y2 lam10n5 ) ( - ( + ( + 0 ( * Nl2main_x1 1 ) ) ( * Nl2main_tmp1 1 ) ) ) ) 0 ) ( = ( + ( * Nl2main_tmp1 lam10n4 ) ( * Nl2main_tmp2 lam10n5 ) ) 0 ) ( = ( + ( * Nl2main_xtmp1 lam10n4 ) ( * Nl2main_xtmp2 lam10n5 ) ) 0 ) ) ))
(assert ( or ( and ( >= lam9n0 0 ) ( >= lam9n1 0 ) ( >= lam9n2 0 ) ( >= lam9n4 0 ) ( >= lam9n5 0 ) ( > ( + ( * 1 lam9n0 ) ( * 1 lam9n1 ) ( * 2 lam9n2 ) ( * Nl2CT1 lam9n4 ) ( * Nl2CT2 lam9n5 ) ( - 1 ) ) 0 ) ( = ( + ( * ( - 1 ) lam9n0 ) ( * ( - 1 ) lam9n2 ) ( * 1 lam9n3 ) ( * Nl2main_x1 lam9n4 ) ( * Nl2main_x2 lam9n5 ) ) 0 ) ( = ( + ( * ( - 1 ) lam9n1 ) ( * ( - 1 ) lam9n2 ) ( * ( - 1 ) lam9n3 ) ( * Nl2main_y1 lam9n4 ) ( * Nl2main_y2 lam9n5 ) ) 0 ) ( = ( + ( * Nl2main_tmp1 lam9n4 ) ( * Nl2main_tmp2 lam9n5 ) ) 0 ) ( = ( + ( * Nl2main_xtmp1 lam9n4 ) ( * Nl2main_xtmp2 lam9n5 ) ) 0 ) ) ( and ( >= lam11n0 0 ) ( >= lam11n1 0 ) ( >= lam11n2 0 ) ( >= lam11n4 0 ) ( >= lam11n5 0 ) ( > ( + ( * 1 lam11n0 ) ( * 1 lam11n1 ) ( * 2 lam11n2 ) ( * Nl2CT1 lam11n4 ) ( * Nl2CT2 lam11n5 ) ( - 1 ( + ( + ( + ( + Nl2CT2 ( * Nl2main_x2 0 ) ) ( * Nl2main_y2 0 ) ) ( * Nl2main_tmp2 0 ) ) ( * Nl2main_xtmp2 0 ) ) ) ) 0 ) ( = ( + ( * ( - 1 ) lam11n0 ) ( * ( - 1 ) lam11n2 ) ( * 1 lam11n3 ) ( * Nl2main_x1 lam11n4 ) ( * Nl2main_x2 lam11n5 ) ( - ( + ( + 0 ( * Nl2main_y2 1 ) ) ( * Nl2main_xtmp2 1 ) ) ) ) 0 ) ( = ( + ( * ( - 1 ) lam11n1 ) ( * ( - 1 ) lam11n2 ) ( * ( - 1 ) lam11n3 ) ( * Nl2main_y1 lam11n4 ) ( * Nl2main_y2 lam11n5 ) ( - ( + ( + 0 ( * Nl2main_x2 1 ) ) ( * Nl2main_tmp2 1 ) ) ) ) 0 ) ( = ( + ( * Nl2main_tmp1 lam11n4 ) ( * Nl2main_tmp2 lam11n5 ) ) 0 ) ( = ( + ( * Nl2main_xtmp1 lam11n4 ) ( * Nl2main_xtmp2 lam11n5 ) ) 0 ) ) ))
(assert ( or ( and ( <= ( * ( - 1 ) main_y ) 0 ) ( <= ( + 1 ( * ( - 1 ) main_x ) main_y ) 0 ) ( not ( <= ( + ( - 1 ) main_x main_y ) 0 ) ) ( = ( + main_x ( * ( - 1 ) undef3 ) ) 0 ) ( = ( + main_y ( * ( - 1 ) undef4 ) ) 0 ) ( <= ( + Nl2CT1 ( * ( + 0 Nl2main_x1 ) main_x ) ( * ( + 0 Nl2main_y1 ) main_y ) ( * ( + 0 Nl2main_tmp1 ) main_tmp ) ( * ( + 0 Nl2main_xtmp1 ) main_xtmp ) ) 0 ) ( <= ( + Nl2CT2 ( * ( + 0 Nl2main_x2 ) main_x ) ( * ( + 0 Nl2main_y2 ) main_y ) ( * ( + 0 Nl2main_tmp2 ) main_tmp ) ( * ( + 0 Nl2main_xtmp2 ) main_xtmp ) ) 0 ) ( <= ( + ( * ( - 1 ) main_x ) ( * ( - 1 ) main_y ) ) 0 ) ) ( and ( <= ( + ( * ( - 1 ) main_x ) ( * ( - 1 ) main_y ) ) 0 ) ( <= ( * ( - 1 ) main_y ) 0 ) ( <= ( + ( - 1 ) main_x main_y ) 0 ) ( not ( <= ( + ( - 1 ) ( * ( - 1 ) main_x ) main_y ) 0 ) ) ( = ( + main_x ( * ( - 1 ) undef3 ) ) 0 ) ( = ( + main_y ( * ( - 1 ) undef4 ) ) 0 ) ( <= ( + Nl2CT1 ( * ( + 0 Nl2main_x1 ) main_x ) ( * ( + 0 Nl2main_y1 ) main_y ) ( * ( + 0 Nl2main_tmp1 ) main_tmp ) ( * ( + 0 Nl2main_xtmp1 ) main_xtmp ) ) 0 ) ( <= ( + Nl2CT2 ( * ( + 0 Nl2main_x2 ) main_x ) ( * ( + 0 Nl2main_y2 ) main_y ) ( * ( + 0 Nl2main_tmp2 ) main_tmp ) ( * ( + 0 Nl2main_xtmp2 ) main_xtmp ) ) 0 ) ( <= ( + ( * ( - 1 ) main_x ) ( * ( - 1 ) main_y ) ) 0 ) ) ( and ( not ( <= ( + 1 ( * ( - 1 ) main_x ) main_y ) 0 ) ) ( <= ( * ( - 1 ) main_y ) 0 ) ( not ( <= ( + ( - 1 ) main_x main_y ) 0 ) ) ( = ( + main_x ( * ( - 1 ) undef3 ) ) 0 ) ( = ( + main_y ( * ( - 1 ) undef4 ) ) 0 ) ( <= ( + Nl2CT1 ( * ( + 0 Nl2main_x1 ) main_x ) ( * ( + 0 Nl2main_y1 ) main_y ) ( * ( + 0 Nl2main_tmp1 ) main_tmp ) ( * ( + 0 Nl2main_xtmp1 ) main_xtmp ) ) 0 ) ( <= ( + Nl2CT2 ( * ( + 0 Nl2main_x2 ) main_x ) ( * ( + 0 Nl2main_y2 ) main_y ) ( * ( + 0 Nl2main_tmp2 ) main_tmp ) ( * ( + 0 Nl2main_xtmp2 ) main_xtmp ) ) 0 ) ( <= ( + ( * ( - 1 ) main_x ) ( * ( - 1 ) main_y ) ) 0 ) ) ( and ( <= ( + ( * ( - 1 ) main_x ) ( * ( - 1 ) main_y ) ) 0 ) ( not ( <= ( * ( - 1 ) main_y ) 0 ) ) ( = ( + main_x ( * ( - 1 ) undef3 ) ) 0 ) ( = ( + main_y ( * ( - 1 ) undef4 ) ) 0 ) ( <= ( + Nl2CT1 ( * ( + 0 Nl2main_x1 ) main_x ) ( * ( + 0 Nl2main_y1 ) main_y ) ( * ( + 0 Nl2main_tmp1 ) main_tmp ) ( * ( + 0 Nl2main_xtmp1 ) main_xtmp ) ) 0 ) ( <= ( + Nl2CT2 ( * ( + 0 Nl2main_x2 ) main_x ) ( * ( + 0 Nl2main_y2 ) main_y ) ( * ( + 0 Nl2main_tmp2 ) main_tmp ) ( * ( + 0 Nl2main_xtmp2 ) main_xtmp ) ) 0 ) ( <= ( + ( * ( - 1 ) main_x ) ( * ( - 1 ) main_y ) ) 0 ) ) ( and ( not ( <= ( + ( * ( - 1 ) main_x ) ( * ( - 1 ) main_y ) ) 0 ) ) ( = ( + main_x ( * ( - 1 ) undef3 ) ) 0 ) ( = ( + main_y ( * ( - 1 ) undef4 ) ) 0 ) ( <= ( + Nl2CT1 ( * ( + 0 Nl2main_x1 ) main_x ) ( * ( + 0 Nl2main_y1 ) main_y ) ( * ( + 0 Nl2main_tmp1 ) main_tmp ) ( * ( + 0 Nl2main_xtmp1 ) main_xtmp ) ) 0 ) ( <= ( + Nl2CT2 ( * ( + 0 Nl2main_x2 ) main_x ) ( * ( + 0 Nl2main_y2 ) main_y ) ( * ( + 0 Nl2main_tmp2 ) main_tmp ) ( * ( + 0 Nl2main_xtmp2 ) main_xtmp ) ) 0 ) ( <= ( + ( * ( - 1 ) main_x ) ( * ( - 1 ) main_y ) ) 0 ) ) ))
(assert ( or ( and ( and ( and ( >= lam25n0 0 ) ( >= lam25n1 0 ) ( >= lam25n2 0 ) ( >= lam25n3 0 ) ( >= lam25n4 0 ) ( > ( + ( * 1 lam25n1 ) ( * 1 lam25n2 ) ( * Nl2CT1 lam25n3 ) ( * Nl2CT2 lam25n4 ) ( - 1 ( - ( + ( + ( + ( + RFN1_CT ( * RFN1_main_x 0 ) ) ( * RFN1_main_y 0 ) ) ( * RFN1_main_tmp 0 ) ) ( * RFN1_main_xtmp 0 ) ) RFN1_CT ) ) ) 0 ) ( = ( + ( * ( - 1 ) lam25n0 ) ( * ( - 1 ) lam25n1 ) ( * Nl2main_x1 lam25n3 ) ( * Nl2main_x2 lam25n4 ) ( - ( - ( + ( + 0 ( * RFN1_main_y 1 ) ) ( * RFN1_main_xtmp 1 ) ) RFN1_main_x ) ) ) 0 ) ( = ( + ( * ( - 1 ) lam25n0 ) ( * 1 lam25n2 ) ( * Nl2main_y1 lam25n3 ) ( * Nl2main_y2 lam25n4 ) ( - ( - ( + ( + 0 ( * RFN1_main_x 1 ) ) ( * RFN1_main_tmp 1 ) ) RFN1_main_y ) ) ) 0 ) ( = ( + ( * Nl2main_tmp1 lam25n3 ) ( * Nl2main_tmp2 lam25n4 ) ( - ( - RFN1_main_tmp ) ) ) 0 ) ( = ( + ( * Nl2main_xtmp1 lam25n3 ) ( * Nl2main_xtmp2 lam25n4 ) ( - ( - RFN1_main_xtmp ) ) ) 0 ) ) ( and ( >= lam29n0 0 ) ( >= lam29n1 0 ) ( >= lam29n2 0 ) ( >= lam29n3 0 ) ( >= lam29n4 0 ) ( >= lam29n5 0 ) ( >= lam29n6 0 ) ( > ( + ( * 1 lam29n2 ) ( * ( - 1 ) lam29n3 ) ( * 2 lam29n4 ) ( * Nl2CT1 lam29n5 ) ( * Nl2CT2 lam29n6 ) ( - 1 ( - ( + ( + ( + ( + RFN1_CT ( * RFN1_main_x 0 ) ) ( * RFN1_main_y 0 ) ) ( * RFN1_main_tmp 0 ) ) ( * RFN1_main_xtmp 0 ) ) RFN1_CT ) ) ) 0 ) ( = ( + ( * 1 lam29n0 ) ( * ( - 1 ) lam29n1 ) ( * 1 lam29n3 ) ( * 1 lam29n4 ) ( * Nl2main_x1 lam29n5 ) ( * Nl2main_x2 lam29n6 ) ( - ( - ( + ( + 0 ( * RFN1_main_y 1 ) ) ( * RFN1_main_xtmp 1 ) ) RFN1_main_x ) ) ) 0 ) ( = ( + ( * ( - 1 ) lam29n1 ) ( * ( - 1 ) lam29n2 ) ( * 1 lam29n3 ) ( * ( - 1 ) lam29n4 ) ( * Nl2main_y1 lam29n5 ) ( * Nl2main_y2 lam29n6 ) ( - ( - ( + ( + 0 ( * RFN1_main_x 1 ) ) ( * RFN1_main_tmp 1 ) ) RFN1_main_y ) ) ) 0 ) ( = ( + ( * Nl2main_tmp1 lam29n5 ) ( * Nl2main_tmp2 lam29n6 ) ( - ( - RFN1_main_tmp ) ) ) 0 ) ( = ( + ( * Nl2main_xtmp1 lam29n5 ) ( * Nl2main_xtmp2 lam29n6 ) ( - ( - RFN1_main_xtmp ) ) ) 0 ) ) ( and ( >= lam33n0 0 ) ( >= lam33n1 0 ) ( >= lam33n2 0 ) ( >= lam33n3 0 ) ( >= lam33n4 0 ) ( >= lam33n5 0 ) ( > ( + ( * 1 lam33n2 ) ( * 2 lam33n3 ) ( * Nl2CT1 lam33n4 ) ( * Nl2CT2 lam33n5 ) ( - 1 ( - ( + ( + ( + ( + RFN1_CT ( * RFN1_main_x 0 ) ) ( * RFN1_main_y 0 ) ) ( * RFN1_main_tmp 0 ) ) ( * RFN1_main_xtmp 0 ) ) RFN1_CT ) ) ) 0 ) ( = ( + ( * 1 lam33n0 ) ( * 1 lam33n1 ) ( * ( - 1 ) lam33n3 ) ( * Nl2main_x1 lam33n4 ) ( * Nl2main_x2 lam33n5 ) ( - ( - ( + ( + 0 ( * RFN1_main_y 1 ) ) ( * RFN1_main_xtmp 1 ) ) RFN1_main_x ) ) ) 0 ) ( = ( + ( * ( - 1 ) lam33n1 ) ( * ( - 1 ) lam33n2 ) ( * ( - 1 ) lam33n3 ) ( * Nl2main_y1 lam33n4 ) ( * Nl2main_y2 lam33n5 ) ( - ( - ( + ( + 0 ( * RFN1_main_x 1 ) ) ( * RFN1_main_tmp 1 ) ) RFN1_main_y ) ) ) 0 ) ( = ( + ( * Nl2main_tmp1 lam33n4 ) ( * Nl2main_tmp2 lam33n5 ) ( - ( - RFN1_main_tmp ) ) ) 0 ) ( = ( + ( * Nl2main_xtmp1 lam33n4 ) ( * Nl2main_xtmp2 lam33n5 ) ( - ( - RFN1_main_xtmp ) ) ) 0 ) ) ( and ( >= lam37n0 0 ) ( >= lam37n1 0 ) ( >= lam37n2 0 ) ( >= lam37n4 0 ) ( >= lam37n5 0 ) ( > ( + ( * 1 lam37n0 ) ( * 1 lam37n1 ) ( * 2 lam37n2 ) ( * Nl2CT1 lam37n4 ) ( * Nl2CT2 lam37n5 ) ( - 1 ( - ( + ( + ( + ( + RFN1_CT ( * RFN1_main_x 0 ) ) ( * RFN1_main_y 0 ) ) ( * RFN1_main_tmp 0 ) ) ( * RFN1_main_xtmp 0 ) ) RFN1_CT ) ) ) 0 ) ( = ( + ( * ( - 1 ) lam37n0 ) ( * ( - 1 ) lam37n2 ) ( * 1 lam37n3 ) ( * Nl2main_x1 lam37n4 ) ( * Nl2main_x2 lam37n5 ) ( - ( - ( + ( + 0 ( * RFN1_main_y 1 ) ) ( * RFN1_main_xtmp 1 ) ) RFN1_main_x ) ) ) 0 ) ( = ( + ( * ( - 1 ) lam37n1 ) ( * ( - 1 ) lam37n2 ) ( * ( - 1 ) lam37n3 ) ( * Nl2main_y1 lam37n4 ) ( * Nl2main_y2 lam37n5 ) ( - ( - ( + ( + 0 ( * RFN1_main_x 1 ) ) ( * RFN1_main_tmp 1 ) ) RFN1_main_y ) ) ) 0 ) ( = ( + ( * Nl2main_tmp1 lam37n4 ) ( * Nl2main_tmp2 lam37n5 ) ( - ( - RFN1_main_tmp ) ) ) 0 ) ( = ( + ( * Nl2main_xtmp1 lam37n4 ) ( * Nl2main_xtmp2 lam37n5 ) ( - ( - RFN1_main_xtmp ) ) ) 0 ) ) ) ( or ( and ( and ( >= lam23n0 0 ) ( >= lam23n1 0 ) ( >= lam23n2 0 ) ( >= lam23n3 0 ) ( >= lam23n4 0 ) ( > ( + ( * 1 lam23n1 ) ( * 1 lam23n2 ) ( * Nl2CT1 lam23n3 ) ( * Nl2CT2 lam23n4 ) ( - 1 ( - RFN1_CT ) ) ) 0 ) ( = ( + ( * ( - 1 ) lam23n0 ) ( * ( - 1 ) lam23n1 ) ( * Nl2main_x1 lam23n3 ) ( * Nl2main_x2 lam23n4 ) ( - ( - RFN1_main_x ) ) ) 0 ) ( = ( + ( * ( - 1 ) lam23n0 ) ( * 1 lam23n2 ) ( * Nl2main_y1 lam23n3 ) ( * Nl2main_y2 lam23n4 ) ( - ( - RFN1_main_y ) ) ) 0 ) ( = ( + ( * Nl2main_tmp1 lam23n3 ) ( * Nl2main_tmp2 lam23n4 ) ( - ( - RFN1_main_tmp ) ) ) 0 ) ( = ( + ( * Nl2main_xtmp1 lam23n3 ) ( * Nl2main_xtmp2 lam23n4 ) ( - ( - RFN1_main_xtmp ) ) ) 0 ) ) ( and ( >= lam24n0 0 ) ( >= lam24n1 0 ) ( >= lam24n2 0 ) ( >= lam24n3 0 ) ( >= lam24n4 0 ) ( > ( + ( * 1 lam24n1 ) ( * 1 lam24n2 ) ( * Nl2CT1 lam24n3 ) ( * Nl2CT2 lam24n4 ) ( - 1 ( + ( - ( + ( + ( + ( + RFN1_CT ( * RFN1_main_x 0 ) ) ( * RFN1_main_y 0 ) ) ( * RFN1_main_tmp 0 ) ) ( * RFN1_main_xtmp 0 ) ) RFN1_CT ) 1 ) ) ) 0 ) ( = ( + ( * ( - 1 ) lam24n0 ) ( * ( - 1 ) lam24n1 ) ( * Nl2main_x1 lam24n3 ) ( * Nl2main_x2 lam24n4 ) ( - ( - ( + ( + 0 ( * RFN1_main_y 1 ) ) ( * RFN1_main_xtmp 1 ) ) RFN1_main_x ) ) ) 0 ) ( = ( + ( * ( - 1 ) lam24n0 ) ( * 1 lam24n2 ) ( * Nl2main_y1 lam24n3 ) ( * Nl2main_y2 lam24n4 ) ( - ( - ( + ( + 0 ( * RFN1_main_x 1 ) ) ( * RFN1_main_tmp 1 ) ) RFN1_main_y ) ) ) 0 ) ( = ( + ( * Nl2main_tmp1 lam24n3 ) ( * Nl2main_tmp2 lam24n4 ) ( - ( - RFN1_main_tmp ) ) ) 0 ) ( = ( + ( * Nl2main_xtmp1 lam24n3 ) ( * Nl2main_xtmp2 lam24n4 ) ( - ( - RFN1_main_xtmp ) ) ) 0 ) ) ) ( and ( and ( >= lam27n0 0 ) ( >= lam27n1 0 ) ( >= lam27n2 0 ) ( >= lam27n3 0 ) ( >= lam27n4 0 ) ( >= lam27n5 0 ) ( >= lam27n6 0 ) ( > ( + ( * 1 lam27n2 ) ( * ( - 1 ) lam27n3 ) ( * 2 lam27n4 ) ( * Nl2CT1 lam27n5 ) ( * Nl2CT2 lam27n6 ) ( - 1 ( - RFN1_CT ) ) ) 0 ) ( = ( + ( * 1 lam27n0 ) ( * ( - 1 ) lam27n1 ) ( * 1 lam27n3 ) ( * 1 lam27n4 ) ( * Nl2main_x1 lam27n5 ) ( * Nl2main_x2 lam27n6 ) ( - ( - RFN1_main_x ) ) ) 0 ) ( = ( + ( * ( - 1 ) lam27n1 ) ( * ( - 1 ) lam27n2 ) ( * 1 lam27n3 ) ( * ( - 1 ) lam27n4 ) ( * Nl2main_y1 lam27n5 ) ( * Nl2main_y2 lam27n6 ) ( - ( - RFN1_main_y ) ) ) 0 ) ( = ( + ( * Nl2main_tmp1 lam27n5 ) ( * Nl2main_tmp2 lam27n6 ) ( - ( - RFN1_main_tmp ) ) ) 0 ) ( = ( + ( * Nl2main_xtmp1 lam27n5 ) ( * Nl2main_xtmp2 lam27n6 ) ( - ( - RFN1_main_xtmp ) ) ) 0 ) ) ( and ( >= lam28n0 0 ) ( >= lam28n1 0 ) ( >= lam28n2 0 ) ( >= lam28n3 0 ) ( >= lam28n4 0 ) ( >= lam28n5 0 ) ( >= lam28n6 0 ) ( > ( + ( * 1 lam28n2 ) ( * ( - 1 ) lam28n3 ) ( * 2 lam28n4 ) ( * Nl2CT1 lam28n5 ) ( * Nl2CT2 lam28n6 ) ( - 1 ( + ( - ( + ( + ( + ( + RFN1_CT ( * RFN1_main_x 0 ) ) ( * RFN1_main_y 0 ) ) ( * RFN1_main_tmp 0 ) ) ( * RFN1_main_xtmp 0 ) ) RFN1_CT ) 1 ) ) ) 0 ) ( = ( + ( * 1 lam28n0 ) ( * ( - 1 ) lam28n1 ) ( * 1 lam28n3 ) ( * 1 lam28n4 ) ( * Nl2main_x1 lam28n5 ) ( * Nl2main_x2 lam28n6 ) ( - ( - ( + ( + 0 ( * RFN1_main_y 1 ) ) ( * RFN1_main_xtmp 1 ) ) RFN1_main_x ) ) ) 0 ) ( = ( + ( * ( - 1 ) lam28n1 ) ( * ( - 1 ) lam28n2 ) ( * 1 lam28n3 ) ( * ( - 1 ) lam28n4 ) ( * Nl2main_y1 lam28n5 ) ( * Nl2main_y2 lam28n6 ) ( - ( - ( + ( + 0 ( * RFN1_main_x 1 ) ) ( * RFN1_main_tmp 1 ) ) RFN1_main_y ) ) ) 0 ) ( = ( + ( * Nl2main_tmp1 lam28n5 ) ( * Nl2main_tmp2 lam28n6 ) ( - ( - RFN1_main_tmp ) ) ) 0 ) ( = ( + ( * Nl2main_xtmp1 lam28n5 ) ( * Nl2main_xtmp2 lam28n6 ) ( - ( - RFN1_main_xtmp ) ) ) 0 ) ) ) ( and ( and ( >= lam31n0 0 ) ( >= lam31n1 0 ) ( >= lam31n2 0 ) ( >= lam31n3 0 ) ( >= lam31n4 0 ) ( >= lam31n5 0 ) ( > ( + ( * 1 lam31n2 ) ( * 2 lam31n3 ) ( * Nl2CT1 lam31n4 ) ( * Nl2CT2 lam31n5 ) ( - 1 ( - RFN1_CT ) ) ) 0 ) ( = ( + ( * 1 lam31n0 ) ( * 1 lam31n1 ) ( * ( - 1 ) lam31n3 ) ( * Nl2main_x1 lam31n4 ) ( * Nl2main_x2 lam31n5 ) ( - ( - RFN1_main_x ) ) ) 0 ) ( = ( + ( * ( - 1 ) lam31n1 ) ( * ( - 1 ) lam31n2 ) ( * ( - 1 ) lam31n3 ) ( * Nl2main_y1 lam31n4 ) ( * Nl2main_y2 lam31n5 ) ( - ( - RFN1_main_y ) ) ) 0 ) ( = ( + ( * Nl2main_tmp1 lam31n4 ) ( * Nl2main_tmp2 lam31n5 ) ( - ( - RFN1_main_tmp ) ) ) 0 ) ( = ( + ( * Nl2main_xtmp1 lam31n4 ) ( * Nl2main_xtmp2 lam31n5 ) ( - ( - RFN1_main_xtmp ) ) ) 0 ) ) ( and ( >= lam32n0 0 ) ( >= lam32n1 0 ) ( >= lam32n2 0 ) ( >= lam32n3 0 ) ( >= lam32n4 0 ) ( >= lam32n5 0 ) ( > ( + ( * 1 lam32n2 ) ( * 2 lam32n3 ) ( * Nl2CT1 lam32n4 ) ( * Nl2CT2 lam32n5 ) ( - 1 ( + ( - ( + ( + ( + ( + RFN1_CT ( * RFN1_main_x 0 ) ) ( * RFN1_main_y 0 ) ) ( * RFN1_main_tmp 0 ) ) ( * RFN1_main_xtmp 0 ) ) RFN1_CT ) 1 ) ) ) 0 ) ( = ( + ( * 1 lam32n0 ) ( * 1 lam32n1 ) ( * ( - 1 ) lam32n3 ) ( * Nl2main_x1 lam32n4 ) ( * Nl2main_x2 lam32n5 ) ( - ( - ( + ( + 0 ( * RFN1_main_y 1 ) ) ( * RFN1_main_xtmp 1 ) ) RFN1_main_x ) ) ) 0 ) ( = ( + ( * ( - 1 ) lam32n1 ) ( * ( - 1 ) lam32n2 ) ( * ( - 1 ) lam32n3 ) ( * Nl2main_y1 lam32n4 ) ( * Nl2main_y2 lam32n5 ) ( - ( - ( + ( + 0 ( * RFN1_main_x 1 ) ) ( * RFN1_main_tmp 1 ) ) RFN1_main_y ) ) ) 0 ) ( = ( + ( * Nl2main_tmp1 lam32n4 ) ( * Nl2main_tmp2 lam32n5 ) ( - ( - RFN1_main_tmp ) ) ) 0 ) ( = ( + ( * Nl2main_xtmp1 lam32n4 ) ( * Nl2main_xtmp2 lam32n5 ) ( - ( - RFN1_main_xtmp ) ) ) 0 ) ) ) ( and ( and ( >= lam35n0 0 ) ( >= lam35n1 0 ) ( >= lam35n2 0 ) ( >= lam35n4 0 ) ( >= lam35n5 0 ) ( > ( + ( * 1 lam35n0 ) ( * 1 lam35n1 ) ( * 2 lam35n2 ) ( * Nl2CT1 lam35n4 ) ( * Nl2CT2 lam35n5 ) ( - 1 ( - RFN1_CT ) ) ) 0 ) ( = ( + ( * ( - 1 ) lam35n0 ) ( * ( - 1 ) lam35n2 ) ( * 1 lam35n3 ) ( * Nl2main_x1 lam35n4 ) ( * Nl2main_x2 lam35n5 ) ( - ( - RFN1_main_x ) ) ) 0 ) ( = ( + ( * ( - 1 ) lam35n1 ) ( * ( - 1 ) lam35n2 ) ( * ( - 1 ) lam35n3 ) ( * Nl2main_y1 lam35n4 ) ( * Nl2main_y2 lam35n5 ) ( - ( - RFN1_main_y ) ) ) 0 ) ( = ( + ( * Nl2main_tmp1 lam35n4 ) ( * Nl2main_tmp2 lam35n5 ) ( - ( - RFN1_main_tmp ) ) ) 0 ) ( = ( + ( * Nl2main_xtmp1 lam35n4 ) ( * Nl2main_xtmp2 lam35n5 ) ( - ( - RFN1_main_xtmp ) ) ) 0 ) ) ( and ( >= lam36n0 0 ) ( >= lam36n1 0 ) ( >= lam36n2 0 ) ( >= lam36n4 0 ) ( >= lam36n5 0 ) ( > ( + ( * 1 lam36n0 ) ( * 1 lam36n1 ) ( * 2 lam36n2 ) ( * Nl2CT1 lam36n4 ) ( * Nl2CT2 lam36n5 ) ( - 1 ( + ( - ( + ( + ( + ( + RFN1_CT ( * RFN1_main_x 0 ) ) ( * RFN1_main_y 0 ) ) ( * RFN1_main_tmp 0 ) ) ( * RFN1_main_xtmp 0 ) ) RFN1_CT ) 1 ) ) ) 0 ) ( = ( + ( * ( - 1 ) lam36n0 ) ( * ( - 1 ) lam36n2 ) ( * 1 lam36n3 ) ( * Nl2main_x1 lam36n4 ) ( * Nl2main_x2 lam36n5 ) ( - ( - ( + ( + 0 ( * RFN1_main_y 1 ) ) ( * RFN1_main_xtmp 1 ) ) RFN1_main_x ) ) ) 0 ) ( = ( + ( * ( - 1 ) lam36n1 ) ( * ( - 1 ) lam36n2 ) ( * ( - 1 ) lam36n3 ) ( * Nl2main_y1 lam36n4 ) ( * Nl2main_y2 lam36n5 ) ( - ( - ( + ( + 0 ( * RFN1_main_x 1 ) ) ( * RFN1_main_tmp 1 ) ) RFN1_main_y ) ) ) 0 ) ( = ( + ( * Nl2main_tmp1 lam36n4 ) ( * Nl2main_tmp2 lam36n5 ) ( - ( - RFN1_main_tmp ) ) ) 0 ) ( = ( + ( * Nl2main_xtmp1 lam36n4 ) ( * Nl2main_xtmp2 lam36n5 ) ( - ( - RFN1_main_xtmp ) ) ) 0 ) ) ) ) ) ( or ( and ( >= lam22n0 0 ) ( >= lam22n1 0 ) ( >= lam22n2 0 ) ( >= lam22n3 0 ) ( >= lam22n4 0 ) ( > ( + ( * 1 lam22n1 ) ( * 1 lam22n2 ) ( * Nl2CT1 lam22n3 ) ( * Nl2CT2 lam22n4 ) ( - 1 ) ) 0 ) ( = ( + ( * ( - 1 ) lam22n0 ) ( * ( - 1 ) lam22n1 ) ( * Nl2main_x1 lam22n3 ) ( * Nl2main_x2 lam22n4 ) ) 0 ) ( = ( + ( * ( - 1 ) lam22n0 ) ( * 1 lam22n2 ) ( * Nl2main_y1 lam22n3 ) ( * Nl2main_y2 lam22n4 ) ) 0 ) ( = ( + ( * Nl2main_tmp1 lam22n3 ) ( * Nl2main_tmp2 lam22n4 ) ) 0 ) ( = ( + ( * Nl2main_xtmp1 lam22n3 ) ( * Nl2main_xtmp2 lam22n4 ) ) 0 ) ) ( and ( >= lam26n0 0 ) ( >= lam26n1 0 ) ( >= lam26n2 0 ) ( >= lam26n3 0 ) ( >= lam26n4 0 ) ( >= lam26n5 0 ) ( >= lam26n6 0 ) ( > ( + ( * 1 lam26n2 ) ( * ( - 1 ) lam26n3 ) ( * 2 lam26n4 ) ( * Nl2CT1 lam26n5 ) ( * Nl2CT2 lam26n6 ) ( - 1 ) ) 0 ) ( = ( + ( * 1 lam26n0 ) ( * ( - 1 ) lam26n1 ) ( * 1 lam26n3 ) ( * 1 lam26n4 ) ( * Nl2main_x1 lam26n5 ) ( * Nl2main_x2 lam26n6 ) ) 0 ) ( = ( + ( * ( - 1 ) lam26n1 ) ( * ( - 1 ) lam26n2 ) ( * 1 lam26n3 ) ( * ( - 1 ) lam26n4 ) ( * Nl2main_y1 lam26n5 ) ( * Nl2main_y2 lam26n6 ) ) 0 ) ( = ( + ( * Nl2main_tmp1 lam26n5 ) ( * Nl2main_tmp2 lam26n6 ) ) 0 ) ( = ( + ( * Nl2main_xtmp1 lam26n5 ) ( * Nl2main_xtmp2 lam26n6 ) ) 0 ) ) ( and ( >= lam30n0 0 ) ( >= lam30n1 0 ) ( >= lam30n2 0 ) ( >= lam30n3 0 ) ( >= lam30n4 0 ) ( >= lam30n5 0 ) ( > ( + ( * 1 lam30n2 ) ( * 2 lam30n3 ) ( * Nl2CT1 lam30n4 ) ( * Nl2CT2 lam30n5 ) ( - 1 ) ) 0 ) ( = ( + ( * 1 lam30n0 ) ( * 1 lam30n1 ) ( * ( - 1 ) lam30n3 ) ( * Nl2main_x1 lam30n4 ) ( * Nl2main_x2 lam30n5 ) ) 0 ) ( = ( + ( * ( - 1 ) lam30n1 ) ( * ( - 1 ) lam30n2 ) ( * ( - 1 ) lam30n3 ) ( * Nl2main_y1 lam30n4 ) ( * Nl2main_y2 lam30n5 ) ) 0 ) ( = ( + ( * Nl2main_tmp1 lam30n4 ) ( * Nl2main_tmp2 lam30n5 ) ) 0 ) ( = ( + ( * Nl2main_xtmp1 lam30n4 ) ( * Nl2main_xtmp2 lam30n5 ) ) 0 ) ) ( and ( >= lam34n0 0 ) ( >= lam34n1 0 ) ( >= lam34n2 0 ) ( >= lam34n4 0 ) ( >= lam34n5 0 ) ( > ( + ( * 1 lam34n0 ) ( * 1 lam34n1 ) ( * 2 lam34n2 ) ( * Nl2CT1 lam34n4 ) ( * Nl2CT2 lam34n5 ) ( - 1 ) ) 0 ) ( = ( + ( * ( - 1 ) lam34n0 ) ( * ( - 1 ) lam34n2 ) ( * 1 lam34n3 ) ( * Nl2main_x1 lam34n4 ) ( * Nl2main_x2 lam34n5 ) ) 0 ) ( = ( + ( * ( - 1 ) lam34n1 ) ( * ( - 1 ) lam34n2 ) ( * ( - 1 ) lam34n3 ) ( * Nl2main_y1 lam34n4 ) ( * Nl2main_y2 lam34n5 ) ) 0 ) ( = ( + ( * Nl2main_tmp1 lam34n4 ) ( * Nl2main_tmp2 lam34n5 ) ) 0 ) ( = ( + ( * Nl2main_xtmp1 lam34n4 ) ( * Nl2main_xtmp2 lam34n5 ) ) 0 ) ) ) ))
(check-sat)
(exit)
